10
0   21   91   55   30   7   30   11   72   4   
21   0   3   20   35   88   36   83   30   85   
91   3   0   0   17   67   27   80   92   36   
55   20   0   0   0   48   30   68   0   73   
30   35   17   0   0   33   84   74   73   40   
7   88   67   48   33   0   54   59   35   59   
30   36   27   30   84   54   0   37   24   72   
11   83   80   68   74   59   37   0   91   3   
72   30   92   0   73   35   24   91   0   71   
4   85   36   73   40   59   72   3   71   0   
0   40   61   91   75   6   18   21   63   79   
28   0   22   51   81   70   78   58   14   8   
23   43   0   94   54   78   5   1   9   40   
78   53   78   0   11   47   67   2   0   79   
0   92   0   94   0   95   70   4   26   60   
30   82   79   19   53   0   11   94   4   60   
45   0   58   76   17   45   0   73   67   36   
84   55   73   82   78   13   70   0   41   3   
94   19   1   61   35   63   78   79   0   87   
35   3   70   7   23   0   22   10   86   0   
